# File generated with Atomsk by ning on 
   1.00000000000000     
    15.3433242799999991    0.0000000000000000    0.0000000000000000
    -7.6716621299999996   13.2877086000000002    0.0000000000000000
     0.0000000000000000    0.0000000000000000   30.0000000000000000
  Te/             Mo/           
              76              38
Direct
  0.0181084703872854  0.1415295292675402  0.3137627107331976
  0.3873311693449012  0.0879995779613176  0.3146054487640350
  0.2817395369808659  0.2461285713185419  0.3143357478421233
  0.1757455895601615  0.4042297689957934  0.3143949192028129
  0.0701708397579866  0.5616218237249833  0.3149377734526272
  0.7538714286719012  0.0356109654003184  0.3143357478421233
  0.6495053906509224  0.1935587906023005  0.3152834030268018
  0.5440533992856917  0.3504946088773266  0.3152834030268018
  0.4383781761424720  0.5085490165972307  0.3149377734526272
  0.3333333335505841  0.6666666666666643  0.3148605400088111
  0.2284841782071744  0.8242544098092244  0.3143949188694831
  0.1234210588944160  0.9818915299362250  0.3137627103998607
  0.9120004221880953  0.2993315916620665  0.3146054487640350
  0.8064412094116403  0.4559466005203728  0.3152834030268018
  0.7006684081915400  0.6126688311291872  0.3146054487640350
  0.5957702302774137  0.7715158211949817  0.3143949192028129
  0.4914509831723328  0.9298291604303640  0.3149377734526272
  0.9643890343472330  0.7182604632811400  0.3143357478421233
  0.8584704700665536  0.8765789407962352  0.3137627103998607
  0.0184113962784879  0.1401677068835583  0.4341330375537075
  0.3849177110232591  0.0865714615925836  0.4355107356465038
  0.2804286343990769  0.2444369532471605  0.4349261517923929
  0.1757375925376023  0.4030825959383950  0.4353784231714790
  0.0704132727390137  0.5612653120820961  0.4355902282597326
  0.7555630465711605  0.0359916808793308  0.4349261517923929
  0.6496413679207484  0.1929612013464781  0.4361742707175635
  0.5433198325997236  0.3503586322992067  0.4361742703842337
  0.4387346876419004  0.5091479608378998  0.4355902282597326
  0.3333333335505841  0.6666666666666643  0.4357452881625401
  0.2273450020415953  0.8242624066681528  0.4353784231714790
  0.1217563104877882  0.9815886037985563  0.4341330375537075
  0.9134285383877555  0.2983462494642415  0.4355107356465038
  0.8070387985523194  0.4566801671068866  0.4361742707175635
  0.7016537505889855  0.6150822889431750  0.4355107356465038
  0.5969174041173044  0.7726549973934520  0.4353784231714790
  0.4908520389673334  0.9295867270800039  0.4355902282597326
  0.9640083190297624  0.7195713658735091  0.4349261517923929
  0.8598322925819784  0.8782436893178857  0.4341330375537075
  0.1401677066654288  0.0184113962014438  0.5658674317796223
  0.5612653130996714  0.0704132729199960  0.5644102464069307
  0.4030825950430472  0.1757375918266972  0.5646220501618510
  0.2444369534420837  0.2804286341264914  0.5650743198742737
  0.0865714628234071  0.3849177118094035  0.5644897376868261
  0.9815886044085004  0.1217563106821146  0.5658674317796223
  0.8242624081077905  0.2273450033591192  0.5646220501618510
  0.6666666664494159  0.3333333333333357  0.5642551875041267
  0.5091479600848027  0.4387346879179037  0.5644102464069307
  0.3503586317647791  0.5433198336456851  0.5638262049491032
  0.1929612017855011  0.6496413684533642  0.5638262049491032
  0.0359916808190910  0.7555630467528391  0.5650743198742737
  0.9295867275680970  0.4908520406672501  0.5644102464069307
  0.7726549968491621  0.5969174048141834  0.5646220501618510
  0.6150822883853421  0.7016537512883301  0.5644897376868261
  0.4566801668260090  0.8070387986535220  0.5638262049491032
  0.2983462481394986  0.9134285369022664  0.5644897376868261
  0.8782436893023532  0.8598322938690199  0.5658674317796223
  0.7195713661151079  0.9640083198732476  0.5650743198742737
  0.1415295263277265  0.0181084700637753  0.6862377599334722
  0.5616218236785422  0.0701708403222144  0.6850627002140396
  0.4042297654605804  0.1757455886856255  0.6856055537971869
  0.2461285681657856  0.2817395329559895  0.6856647241578804
  0.0879995766321125  0.3873311651079349  0.6853950242359651
  0.9818915305879845  0.1234210569460367  0.6862377599334722
  0.8242544115666026  0.2284841765472897  0.6856055537971869
  0.6666666664494159  0.3333333333333357  0.6851399339911929
  0.5085490161130527  0.4383781762750167  0.6850627002140396
  0.3504946087330083  0.5440533979744775  0.6847170709731948
  0.1935587889102069  0.6495053911226730  0.6847170709731948
  0.0356109642292019  0.7538714316917575  0.6856647241578804
  0.9298291599329415  0.4914509841553474  0.6850627002140396
  0.7715158229728165  0.5957702347670775  0.6856055537971869
  0.6126688350282194  0.7006684113482327  0.6853950242359651
  0.4559466017050394  0.8064412109028493  0.6847170713065317
  0.2993315883396752  0.9120004235438322  0.6853950242359651
  0.8765789434605786  0.8584704737427596  0.6862377599334722
  0.7182604673295567  0.9643890361048315  0.6856647238245435
  0.9999999993482476  0.0000000000000000  0.3735649056739480
  0.2634180586441014  0.1047803054729717  0.3744010278721650
  0.1587143111137038  0.2636806848893604  0.3743813394626155
  0.0530563679304406  0.4211423252206197  0.3750236459439289
  0.6316643869482718  0.0529734005166425  0.3752782553210959
  0.5264370940172706  0.2102390560178215  0.3756910689658677
  0.4213090132162117  0.3683356130285789  0.3752782553210959
  0.3157032344311213  0.5263723396346331  0.3751546087865691
  0.2106691047590104  0.6842967651480314  0.3751546087865691
  0.1049663730017051  0.8412856885540891  0.3743813397959525
  0.8952196945986509  0.1586377536021308  0.3744010278721650
  0.7897609437232356  0.3161980384869738  0.3756910689658677
  0.6838019616077415  0.4735629054952048  0.3756910689658677
  0.5788576744796523  0.6319140428343648  0.3750236459439289
  0.4736276601581159  0.7893308952173289  0.3751546087865691
  0.3680859562864096  0.9469436319450154  0.3750236459439289
  0.9470265991837642  0.5786909864547786  0.3752782553210959
  0.8413622461055021  0.7365819409248979  0.3744010278721650
  0.7363193145810939  0.8950336265565504  0.3743813397959525
  0.0000000000000000  0.0000000000000000  0.6264357373260520
  0.4211423280079225  0.0530563703127128  0.6249769867227406
  0.2636806904090553  0.1587143159613603  0.6256192985373802
  0.1047803064434026  0.2634180635905518  0.6255996101278312
  0.8412856843538010  0.1049663741960279  0.6256192985373802
  0.6842967628121577  0.2106691062878213  0.6248460225467667
  0.5263723429346778  0.3157032371096898  0.6248460222134369
  0.3683356153646657  0.4213090173080994  0.6247223766789067
  0.2102390572070213  0.5264370967625235  0.6243095607007977
  0.0529734014942569  0.6316643847136930  0.6247223766789067
  0.9469436302381852  0.3680859579182065  0.6249769867227406
  0.7893308946294472  0.4736276573550674  0.6248460222134369
  0.6319140421301743  0.5788576725216523  0.6249769867227406
  0.4735629033167021  0.6838019607604477  0.6243095607007977
  0.3161980392008064  0.7897609432296002  0.6243095607007977
  0.1586377568418646  0.8952196937744569  0.6255996101278312
  0.8950336258888960  0.7363193098426123  0.6256192985373802
  0.7365819364392772  0.8413622433875625  0.6255996101278312
  0.5786909824893248  0.9470265979782077  0.6247223766789067
 
  0.00000000E+00  0.00000000E+00  0.00000000E+00
  0.00000000E+00  0.00000000E+00  0.00000000E+00
  0.00000000E+00  0.00000000E+00  0.00000000E+00
  0.00000000E+00  0.00000000E+00  0.00000000E+00
  0.00000000E+00  0.00000000E+00  0.00000000E+00
  0.00000000E+00  0.00000000E+00  0.00000000E+00
  0.00000000E+00  0.00000000E+00  0.00000000E+00
  0.00000000E+00  0.00000000E+00  0.00000000E+00
  0.00000000E+00  0.00000000E+00  0.00000000E+00
  0.00000000E+00  0.00000000E+00  0.00000000E+00
  0.00000000E+00  0.00000000E+00  0.00000000E+00
  0.00000000E+00  0.00000000E+00  0.00000000E+00
  0.00000000E+00  0.00000000E+00  0.00000000E+00
  0.00000000E+00  0.00000000E+00  0.00000000E+00
  0.00000000E+00  0.00000000E+00  0.00000000E+00
  0.00000000E+00  0.00000000E+00  0.00000000E+00
  0.00000000E+00  0.00000000E+00  0.00000000E+00
  0.00000000E+00  0.00000000E+00  0.00000000E+00
  0.00000000E+00  0.00000000E+00  0.00000000E+00
  0.00000000E+00  0.00000000E+00  0.00000000E+00
  0.00000000E+00  0.00000000E+00  0.00000000E+00
  0.00000000E+00  0.00000000E+00  0.00000000E+00
  0.00000000E+00  0.00000000E+00  0.00000000E+00
  0.00000000E+00  0.00000000E+00  0.00000000E+00
  0.00000000E+00  0.00000000E+00  0.00000000E+00
  0.00000000E+00  0.00000000E+00  0.00000000E+00
  0.00000000E+00  0.00000000E+00  0.00000000E+00
  0.00000000E+00  0.00000000E+00  0.00000000E+00
  0.00000000E+00  0.00000000E+00  0.00000000E+00
  0.00000000E+00  0.00000000E+00  0.00000000E+00
  0.00000000E+00  0.00000000E+00  0.00000000E+00
  0.00000000E+00  0.00000000E+00  0.00000000E+00
  0.00000000E+00  0.00000000E+00  0.00000000E+00
  0.00000000E+00  0.00000000E+00  0.00000000E+00
  0.00000000E+00  0.00000000E+00  0.00000000E+00
  0.00000000E+00  0.00000000E+00  0.00000000E+00
  0.00000000E+00  0.00000000E+00  0.00000000E+00
  0.00000000E+00  0.00000000E+00  0.00000000E+00
  0.00000000E+00  0.00000000E+00  0.00000000E+00
  0.00000000E+00  0.00000000E+00  0.00000000E+00
  0.00000000E+00  0.00000000E+00  0.00000000E+00
  0.00000000E+00  0.00000000E+00  0.00000000E+00
  0.00000000E+00  0.00000000E+00  0.00000000E+00
  0.00000000E+00  0.00000000E+00  0.00000000E+00
  0.00000000E+00  0.00000000E+00  0.00000000E+00
  0.00000000E+00  0.00000000E+00  0.00000000E+00
  0.00000000E+00  0.00000000E+00  0.00000000E+00
  0.00000000E+00  0.00000000E+00  0.00000000E+00
  0.00000000E+00  0.00000000E+00  0.00000000E+00
  0.00000000E+00  0.00000000E+00  0.00000000E+00
  0.00000000E+00  0.00000000E+00  0.00000000E+00
  0.00000000E+00  0.00000000E+00  0.00000000E+00
  0.00000000E+00  0.00000000E+00  0.00000000E+00
  0.00000000E+00  0.00000000E+00  0.00000000E+00
  0.00000000E+00  0.00000000E+00  0.00000000E+00
  0.00000000E+00  0.00000000E+00  0.00000000E+00
  0.00000000E+00  0.00000000E+00  0.00000000E+00
  0.00000000E+00  0.00000000E+00  0.00000000E+00
  0.00000000E+00  0.00000000E+00  0.00000000E+00
  0.00000000E+00  0.00000000E+00  0.00000000E+00
  0.00000000E+00  0.00000000E+00  0.00000000E+00
  0.00000000E+00  0.00000000E+00  0.00000000E+00
  0.00000000E+00  0.00000000E+00  0.00000000E+00
  0.00000000E+00  0.00000000E+00  0.00000000E+00
  0.00000000E+00  0.00000000E+00  0.00000000E+00
  0.00000000E+00  0.00000000E+00  0.00000000E+00
  0.00000000E+00  0.00000000E+00  0.00000000E+00
  0.00000000E+00  0.00000000E+00  0.00000000E+00
  0.00000000E+00  0.00000000E+00  0.00000000E+00
  0.00000000E+00  0.00000000E+00  0.00000000E+00
  0.00000000E+00  0.00000000E+00  0.00000000E+00
  0.00000000E+00  0.00000000E+00  0.00000000E+00
  0.00000000E+00  0.00000000E+00  0.00000000E+00
  0.00000000E+00  0.00000000E+00  0.00000000E+00
  0.00000000E+00  0.00000000E+00  0.00000000E+00
  0.00000000E+00  0.00000000E+00  0.00000000E+00
  0.00000000E+00  0.00000000E+00  0.00000000E+00
  0.00000000E+00  0.00000000E+00  0.00000000E+00
  0.00000000E+00  0.00000000E+00  0.00000000E+00
  0.00000000E+00  0.00000000E+00  0.00000000E+00
  0.00000000E+00  0.00000000E+00  0.00000000E+00
  0.00000000E+00  0.00000000E+00  0.00000000E+00
  0.00000000E+00  0.00000000E+00  0.00000000E+00
  0.00000000E+00  0.00000000E+00  0.00000000E+00
  0.00000000E+00  0.00000000E+00  0.00000000E+00
  0.00000000E+00  0.00000000E+00  0.00000000E+00
  0.00000000E+00  0.00000000E+00  0.00000000E+00
  0.00000000E+00  0.00000000E+00  0.00000000E+00
  0.00000000E+00  0.00000000E+00  0.00000000E+00
  0.00000000E+00  0.00000000E+00  0.00000000E+00
  0.00000000E+00  0.00000000E+00  0.00000000E+00
  0.00000000E+00  0.00000000E+00  0.00000000E+00
  0.00000000E+00  0.00000000E+00  0.00000000E+00
  0.00000000E+00  0.00000000E+00  0.00000000E+00
  0.00000000E+00  0.00000000E+00  0.00000000E+00
  0.00000000E+00  0.00000000E+00  0.00000000E+00
  0.00000000E+00  0.00000000E+00  0.00000000E+00
  0.00000000E+00  0.00000000E+00  0.00000000E+00
  0.00000000E+00  0.00000000E+00  0.00000000E+00
  0.00000000E+00  0.00000000E+00  0.00000000E+00
  0.00000000E+00  0.00000000E+00  0.00000000E+00
  0.00000000E+00  0.00000000E+00  0.00000000E+00
  0.00000000E+00  0.00000000E+00  0.00000000E+00
  0.00000000E+00  0.00000000E+00  0.00000000E+00
  0.00000000E+00  0.00000000E+00  0.00000000E+00
  0.00000000E+00  0.00000000E+00  0.00000000E+00
  0.00000000E+00  0.00000000E+00  0.00000000E+00
  0.00000000E+00  0.00000000E+00  0.00000000E+00
  0.00000000E+00  0.00000000E+00  0.00000000E+00
  0.00000000E+00  0.00000000E+00  0.00000000E+00
  0.00000000E+00  0.00000000E+00  0.00000000E+00
  0.00000000E+00  0.00000000E+00  0.00000000E+00
  0.00000000E+00  0.00000000E+00  0.00000000E+00
  0.00000000E+00  0.00000000E+00  0.00000000E+00
