Te4 Mo2                                 
1.0
        3.5230000000         0.0000000000         0.0000000000
        1.7615000000         3.0510074980         0.0000000000
        0.0000000000         0.0000000000        26.0000000000
   Te   Mo
    4    2
Direct
     0.333333999         0.333332986         0.282601237
     0.333333999         0.333332986         0.421410769
     0.333333999         0.333332986         0.560142219
     0.333333999         0.333332986         0.698952734
     0.000000000         0.000000000         0.352080554
     0.000000000         0.000000000         0.629472435
